NAME : TSP_INST.7808499.tour
COMMENT : Length = 7808499
COMMENT : Found by LKH [Keld Helsgaun] Sat Oct 18 11:07:54 2025
TYPE : TOUR
DIMENSION : 100
TOUR_SECTION
1
50
80
42
73
27
55
33
41
97
72
87
63
57
79
49
48
93
71
81
58
6
30
67
77
16
85
22
88
66
10
36
3
98
90
43
40
39
19
94
44
21
35
2
60
9
75
69
15
83
100
31
45
23
52
25
53
59
8
46
18
32
62
96
84
4
99
28
38
92
34
86
29
12
24
7
14
20
74
89
13
70
95
51
47
54
56
11
65
68
26
82
61
17
37
5
64
78
76
91
-1
EOF
